p edge 896
e 0 1
e 0 2
e 1 2
e 1 3
e 1 225
e 1 337
e 1 361
e 1 563
e 1 576
e 2 3
e 2 335
e 2 337
e 2 350
e 2 351
e 3 351
e 3 563
e 3 576
e 4 622
e 5 47
e 5 48
e 5 50
e 5 548
e 6 7
e 6 8
e 6 9
e 7 8
e 7 9
e 7 581
e 7 592
e 7 883
e 8 301
e 8 442
e 8 581
e 8 884
e 10 11
e 10 12
e 10 13
e 10 14
e 10 56
e 10 126
e 10 145
e 11 13
e 11 14
e 13 14
e 13 145
e 13 595
e 14 56
e 14 446
e 14 447
e 14 595
e 15 16
e 15 152
e 15 153
e 15 275
e 16 153
e 16 264
e 16 275
e 17 18
e 17 44
e 17 333
e 17 514
e 17 520
e 18 43
e 18 44
e 18 200
e 18 333
e 19 20
e 19 61
e 19 619
e 20 61
e 20 62
e 20 619
e 21 63
e 21 64
e 21 66
e 21 533
e 21 622
e 21 623
e 22 24
e 22 25
e 22 26
e 22 616
e 22 618
e 22 668
e 22 812
e 23 24
e 23 25
e 23 26
e 24 25
e 24 26
e 24 665
e 24 773
e 24 783
e 25 26
e 25 783
e 25 812
e 25 814
e 27 55
e 27 310
e 27 313
e 27 314
e 27 400
e 27 627
e 28 29
e 28 30
e 28 552
e 28 553
e 29 30
e 29 163
e 29 553
e 30 162
e 30 163
e 30 722
e 30 723
e 31 32
e 31 33
e 31 302
e 31 666
e 31 667
e 32 33
e 32 301
e 32 302
e 33 301
e 33 302
e 33 666
e 33 667
e 34 35
e 34 820
e 35 819
e 35 820
e 35 821
e 36 37
e 36 38
e 36 39
e 36 41
e 36 207
e 36 385
e 36 409
e 37 38
e 38 41
e 39 40
e 39 160
e 39 358
e 39 409
e 40 41
e 40 42
e 40 160
e 41 42
e 41 45
e 41 205
e 41 207
e 42 43
e 42 45
e 42 598
e 42 600
e 42 829
e 42 830
e 43 44
e 43 200
e 43 600
e 43 829
e 43 830
e 44 45
e 44 205
e 44 704
e 44 830
e 45 205
e 45 830
e 46 47
e 46 49
e 46 120
e 46 410
e 47 48
e 47 50
e 47 60
e 47 66
e 47 120
e 47 141
e 47 143
e 47 548
e 47 683
e 47 686
e 47 702
e 48 548
e 49 50
e 49 182
e 49 183
e 49 187
e 49 188
e 49 410
e 50 68
e 50 101
e 50 183
e 50 548
e 50 621
e 51 400
e 51 402
e 51 425
e 51 786
e 52 53
e 52 402
e 52 642
e 52 786
e 53 54
e 53 69
e 53 402
e 53 425
e 53 427
e 53 642
e 53 679
e 53 727
e 54 55
e 54 69
e 54 70
e 54 400
e 54 427
e 55 69
e 55 400
e 55 639
e 56 57
e 56 58
e 56 59
e 56 125
e 56 126
e 56 326
e 56 327
e 57 59
e 57 125
e 57 326
e 57 796
e 57 797
e 58 59
e 60 62
e 60 143
e 60 619
e 60 686
e 61 62
e 61 98
e 61 619
e 61 620
e 61 851
e 61 853
e 61 892
e 62 606
e 62 607
e 62 619
e 62 853
e 63 66
e 63 622
e 63 703
e 64 65
e 64 68
e 64 619
e 64 622
e 65 67
e 65 533
e 65 619
e 65 784
e 66 683
e 66 702
e 67 533
e 67 684
e 67 784
e 67 785
e 68 619
e 68 620
e 68 621
e 68 622
e 68 702
e 68 703
e 69 426
e 69 639
e 69 643
e 70 400
e 70 427
e 70 642
e 70 786
e 71 73
e 71 378
e 71 381
e 72 74
e 72 378
e 72 380
e 72 382
e 73 378
e 73 381
e 74 382
e 75 224
e 75 296
e 75 297
e 75 448
e 75 541
e 76 77
e 76 91
e 76 97
e 76 103
e 77 78
e 77 79
e 77 89
e 77 90
e 77 91
e 77 103
e 77 635
e 77 675
e 78 79
e 78 80
e 78 675
e 79 80
e 79 89
e 80 81
e 80 82
e 80 89
e 80 675
e 81 82
e 81 87
e 81 88
e 81 99
e 81 844
e 81 845
e 82 83
e 82 110
e 82 675
e 82 752
e 83 99
e 83 110
e 84 107
e 84 110
e 84 111
e 84 551
e 84 763
e 85 86
e 85 107
e 85 111
e 85 839
e 85 840
e 86 87
e 86 99
e 86 839
e 87 88
e 87 106
e 87 839
e 88 106
e 88 845
e 89 843
e 89 844
e 90 91
e 90 843
e 90 849
e 91 92
e 91 93
e 91 849
e 92 97
e 92 104
e 92 393
e 92 850
e 93 849
e 93 850
e 94 96
e 94 498
e 94 499
e 94 500
e 94 858
e 95 634
e 95 745
e 95 762
e 95 847
e 96 697
e 96 858
e 97 100
e 97 103
e 97 104
e 98 101
e 98 108
e 98 394
e 98 396
e 98 620
e 98 621
e 98 759
e 98 892
e 99 111
e 100 103
e 100 104
e 100 393
e 100 635
e 101 183
e 101 394
e 101 397
e 101 398
e 101 688
e 101 691
e 102 372
e 102 632
e 102 687
e 102 749
e 103 635
e 104 393
e 105 108
e 105 299
e 105 318
e 105 392
e 105 403
e 105 406
e 105 693
e 105 694
e 105 746
e 105 761
e 106 838
e 106 839
e 106 845
e 107 551
e 107 840
e 108 318
e 108 389
e 108 635
e 108 689
e 108 747
e 108 759
e 108 760
e 108 761
e 108 892
e 109 255
e 109 542
e 109 549
e 109 728
e 110 111
e 110 372
e 110 752
e 110 763
e 112 113
e 112 696
e 112 699
e 112 731
e 113 696
e 113 700
e 114 115
e 114 116
e 114 159
e 114 163
e 114 443
e 114 553
e 114 614
e 115 330
e 115 443
e 115 614
e 116 159
e 117 118
e 117 119
e 117 120
e 117 121
e 117 123
e 117 125
e 117 127
e 118 123
e 118 125
e 119 122
e 119 123
e 119 124
e 119 127
e 119 291
e 120 121
e 120 126
e 120 127
e 120 141
e 120 145
e 121 125
e 121 383
e 121 408
e 121 409
e 121 410
e 122 123
e 122 291
e 122 292
e 123 125
e 123 126
e 123 292
e 124 127
e 124 291
e 125 126
e 125 383
e 125 384
e 125 797
e 126 127
e 126 145
e 126 291
e 126 292
e 127 291
e 128 130
e 128 570
e 128 576
e 128 577
e 129 130
e 129 412
e 129 413
e 129 450
e 129 451
e 129 502
e 129 568
e 129 569
e 129 575
e 129 577
e 130 570
e 130 577
e 131 132
e 131 140
e 131 147
e 131 262
e 131 267
e 132 135
e 132 147
e 132 148
e 132 149
e 132 262
e 133 134
e 133 138
e 133 140
e 133 261
e 134 138
e 134 139
e 134 156
e 134 266
e 135 149
e 135 150
e 135 262
e 136 137
e 136 157
e 136 262
e 136 266
e 137 157
e 137 258
e 137 259
e 137 266
e 138 261
e 138 266
e 138 267
e 139 140
e 139 146
e 139 156
e 140 146
e 140 147
e 140 261
e 140 267
e 141 143
e 141 145
e 142 144
e 142 145
e 143 145
e 143 606
e 144 145
e 145 606
e 146 147
e 146 156
e 146 158
e 146 264
e 147 148
e 147 155
e 147 264
e 148 149
e 148 154
e 149 152
e 149 154
e 149 263
e 149 268
e 150 151
e 150 157
e 150 268
e 151 157
e 151 262
e 152 153
e 152 154
e 152 263
e 152 274
e 152 275
e 153 154
e 153 155
e 153 264
e 154 155
e 155 264
e 156 158
e 156 265
e 156 266
e 156 269
e 157 258
e 157 268
e 158 165
e 158 166
e 158 189
e 158 264
e 158 269
e 158 274
e 160 161
e 160 358
e 160 598
e 160 682
e 161 358
e 161 559
e 161 598
e 162 163
e 162 538
e 162 539
e 163 538
e 163 556
e 163 614
e 164 165
e 164 166
e 164 168
e 164 169
e 164 852
e 164 854
e 165 166
e 165 168
e 165 169
e 165 526
e 166 189
e 166 192
e 166 195
e 167 168
e 167 169
e 168 169
e 169 529
e 169 532
e 169 601
e 169 603
e 169 854
e 170 171
e 170 172
e 170 191
e 170 357
e 170 588
e 170 596
e 171 173
e 171 191
e 171 588
e 172 357
e 172 588
e 173 189
e 173 191
e 173 274
e 173 465
e 173 467
e 173 468
e 173 588
e 174 175
e 174 178
e 174 179
e 174 181
e 174 585
e 174 586
e 175 176
e 175 177
e 175 178
e 175 179
e 175 180
e 175 364
e 175 435
e 175 590
e 175 822
e 175 825
e 176 177
e 176 179
e 176 180
e 176 585
e 177 178
e 177 432
e 177 435
e 177 585
e 177 587
e 178 181
e 178 432
e 178 433
e 178 587
e 178 590
e 178 591
e 179 180
e 179 585
e 181 586
e 181 587
e 182 184
e 182 185
e 182 186
e 182 187
e 182 188
e 182 359
e 182 360
e 182 408
e 182 410
e 183 187
e 183 397
e 183 628
e 183 630
e 183 690
e 184 186
e 184 359
e 184 387
e 184 628
e 185 188
e 186 187
e 186 628
e 187 188
e 187 628
e 189 191
e 189 192
e 189 274
e 190 193
e 190 194
e 190 594
e 190 795
e 190 872
e 190 873
e 191 192
e 191 195
e 191 611
e 192 195
e 193 194
e 193 594
e 193 872
e 193 873
e 194 594
e 194 873
e 195 607
e 195 610
e 195 611
e 195 852
e 196 197
e 196 739
e 196 740
e 197 739
e 197 740
e 198 199
e 198 503
e 198 504
e 199 503
e 199 504
e 200 203
e 200 333
e 200 600
e 201 202
e 201 204
e 201 233
e 201 241
e 201 600
e 203 204
e 203 600
e 204 600
e 205 207
e 205 208
e 205 704
e 206 207
e 206 208
e 206 386
e 207 208
e 207 385
e 208 386
e 208 704
e 208 706
e 208 832
e 208 833
e 208 835
e 209 210
e 209 211
e 209 504
e 210 211
e 210 505
e 210 707
e 210 722
e 210 723
e 210 724
e 211 504
e 211 505
e 212 213
e 213 214
e 213 242
e 213 243
e 213 244
e 214 215
e 214 238
e 215 216
e 215 238
e 215 243
e 216 238
e 216 315
e 216 440
e 217 218
e 217 219
e 217 221
e 217 226
e 217 297
e 217 493
e 217 494
e 217 527
e 217 530
e 217 653
e 217 656
e 218 222
e 218 296
e 218 656
e 219 297
e 219 647
e 219 661
e 220 224
e 220 297
e 220 473
e 220 476
e 220 541
e 220 645
e 221 226
e 221 494
e 221 495
e 221 648
e 221 649
e 221 652
e 221 655
e 221 657
e 221 658
e 222 295
e 222 296
e 222 656
e 222 659
e 222 660
e 223 246
e 223 247
e 223 286
e 223 452
e 223 453
e 223 649
e 224 448
e 224 472
e 224 473
e 224 541
e 225 337
e 225 361
e 225 493
e 225 494
e 226 399
e 226 401
e 226 527
e 226 646
e 226 647
e 226 649
e 226 650
e 226 651
e 226 652
e 227 229
e 227 298
e 227 303
e 227 392
e 227 745
e 227 765
e 228 229
e 228 303
e 228 728
e 229 303
e 229 765
e 230 232
e 230 238
e 230 593
e 230 743
e 231 233
e 231 239
e 231 240
e 231 245
e 231 554
e 232 235
e 232 236
e 232 593
e 232 743
e 233 240
e 233 241
e 233 245
e 233 600
e 234 237
e 234 242
e 234 244
e 234 315
e 234 589
e 235 236
e 235 239
e 235 240
e 235 503
e 235 505
e 235 743
e 236 237
e 236 240
e 236 244
e 236 593
e 236 681
e 237 244
e 237 589
e 237 681
e 238 315
e 238 316
e 238 439
e 238 593
e 238 680
e 238 743
e 239 505
e 239 538
e 239 554
e 240 241
e 241 244
e 242 243
e 242 244
e 242 440
e 243 440
e 245 559
e 245 598
e 245 600
e 246 247
e 246 286
e 246 287
e 246 654
e 246 655
e 246 658
e 246 660
e 247 655
e 247 657
e 248 676
e 248 678
e 249 250
e 249 251
e 249 445
e 249 447
e 249 894
e 250 251
e 250 324
e 250 444
e 250 446
e 250 447
e 251 447
e 252 339
e 252 662
e 252 664
e 253 276
e 253 838
e 253 839
e 253 841
e 254 255
e 254 276
e 254 841
e 255 256
e 255 276
e 255 374
e 255 549
e 255 633
e 255 728
e 255 841
e 256 257
e 256 374
e 256 633
e 256 842
e 256 848
e 257 633
e 257 744
e 257 842
e 257 846
e 257 849
e 258 259
e 258 260
e 258 263
e 258 265
e 258 268
e 258 269
e 258 469
e 259 265
e 259 266
e 260 269
e 260 336
e 260 337
e 260 339
e 260 469
e 261 267
e 262 266
e 262 267
e 263 268
e 263 274
e 263 465
e 264 274
e 265 266
e 265 269
e 266 267
e 269 337
e 269 526
e 270 272
e 270 273
e 270 361
e 270 363
e 270 732
e 271 273
e 271 361
e 272 273
e 272 361
e 272 494
e 272 495
e 272 732
e 274 275
e 274 465
e 276 633
e 276 838
e 277 278
e 277 424
e 277 428
e 277 535
e 277 799
e 277 801
e 278 424
e 278 426
e 278 428
e 279 333
e 280 282
e 280 283
e 280 284
e 280 285
e 280 629
e 280 730
e 280 750
e 281 283
e 281 628
e 281 637
e 281 638
e 282 283
e 282 636
e 282 637
e 282 730
e 282 754
e 283 628
e 283 629
e 283 637
e 284 285
e 284 629
e 284 750
e 285 629
e 286 287
e 286 452
e 287 294
e 287 449
e 287 452
e 287 660
e 288 369
e 288 483
e 288 516
e 288 519
e 288 520
e 288 521
e 288 671
e 288 815
e 288 817
e 289 290
e 289 436
e 290 435
e 290 436
e 291 292
e 293 321
e 294 295
e 294 296
e 294 448
e 294 449
e 294 660
e 295 296
e 295 660
e 296 297
e 296 448
e 297 541
e 297 645
e 297 661
e 298 299
e 298 302
e 298 303
e 298 392
e 299 301
e 299 302
e 299 392
e 299 406
e 299 581
e 300 301
e 300 302
e 300 303
e 300 330
e 300 388
e 300 442
e 300 443
e 301 302
e 301 442
e 301 581
e 302 303
e 302 666
e 303 387
e 303 388
e 303 728
e 304 305
e 304 306
e 304 307
e 304 308
e 305 306
e 305 307
e 305 308
e 305 434
e 305 788
e 305 805
e 306 307
e 307 308
e 307 416
e 307 434
e 307 535
e 307 799
e 308 411
e 308 416
e 308 805
e 309 401
e 309 429
e 309 430
e 309 641
e 310 314
e 310 426
e 310 428
e 310 429
e 310 431
e 310 626
e 310 627
e 310 639
e 310 643
e 311 313
e 311 399
e 311 400
e 311 640
e 311 641
e 312 313
e 312 431
e 312 627
e 312 640
e 313 400
e 313 640
e 314 627
e 315 316
e 315 440
e 315 589
e 316 589
e 316 680
e 317 319
e 317 320
e 317 321
e 317 890
e 318 321
e 318 403
e 318 892
e 319 320
e 319 321
e 319 890
e 319 891
e 319 892
e 320 322
e 320 601
e 320 604
e 320 605
e 320 851
e 320 854
e 320 892
e 321 322
e 321 403
e 321 890
e 321 891
e 321 892
e 322 403
e 322 601
e 322 824
e 323 334
e 323 412
e 323 562
e 323 567
e 323 572
e 323 578
e 324 325
e 324 327
e 324 775
e 325 326
e 325 327
e 325 676
e 325 775
e 326 327
e 326 328
e 326 329
e 326 676
e 327 329
e 327 446
e 328 329
e 330 331
e 330 387
e 330 388
e 330 443
e 330 612
e 330 614
e 331 388
e 332 334
e 332 413
e 332 451
e 332 562
e 332 568
e 332 574
e 333 520
e 334 562
e 334 564
e 334 568
e 334 572
e 334 573
e 335 337
e 335 338
e 335 339
e 335 662
e 335 663
e 336 337
e 336 339
e 336 340
e 337 338
e 337 340
e 337 493
e 337 526
e 337 528
e 338 339
e 338 340
e 339 340
e 339 662
e 341 345
e 341 346
e 341 361
e 341 363
e 341 570
e 341 711
e 342 345
e 342 346
e 342 711
e 343 344
e 343 346
e 343 719
e 344 346
e 345 346
e 345 711
e 346 450
e 346 570
e 346 711
e 346 719
e 347 348
e 347 352
e 347 665
e 347 773
e 347 782
e 348 349
e 348 350
e 348 351
e 348 352
e 348 665
e 349 351
e 349 352
e 350 351
e 350 663
e 351 576
e 351 577
e 352 782
e 353 354
e 353 357
e 353 525
e 353 873
e 354 355
e 354 356
e 354 357
e 354 523
e 354 525
e 354 616
e 355 356
e 357 588
e 357 616
e 357 617
e 357 873
e 357 874
e 358 359
e 358 360
e 358 409
e 358 612
e 359 360
e 359 612
e 360 407
e 360 408
e 361 362
e 361 363
e 361 494
e 361 570
e 361 576
e 363 711
e 363 735
e 364 365
e 364 367
e 364 434
e 364 435
e 364 801
e 364 822
e 365 366
e 365 367
e 365 822
e 366 367
e 366 557
e 366 602
e 366 822
e 367 557
e 367 560
e 367 801
e 368 369
e 368 370
e 368 484
e 368 519
e 368 671
e 368 673
e 369 519
e 369 671
e 370 484
e 370 519
e 371 520
e 372 687
e 372 752
e 372 763
e 373 392
e 373 634
e 373 744
e 373 846
e 373 850
e 374 728
e 374 766
e 374 848
e 375 376
e 375 377
e 375 669
e 375 670
e 375 706
e 375 833
e 376 377
e 376 669
e 376 670
e 376 771
e 376 834
e 376 888
e 377 514
e 377 670
e 377 706
e 377 771
e 377 772
e 378 380
e 378 381
e 378 382
e 378 471
e 378 475
e 379 381
e 379 475
e 379 768
e 380 382
e 380 474
e 380 887
e 380 889
e 381 382
e 381 475
e 381 768
e 381 771
e 382 771
e 382 887
e 382 888
e 383 384
e 383 385
e 383 386
e 383 409
e 384 386
e 384 797
e 385 386
e 385 409
e 386 797
e 387 388
e 387 612
e 387 628
e 387 629
e 389 391
e 389 674
e 389 675
e 389 747
e 390 633
e 390 843
e 390 849
e 391 394
e 391 674
e 391 675
e 391 688
e 391 758
e 392 634
e 392 745
e 392 746
e 393 635
e 393 689
e 393 764
e 394 396
e 394 688
e 394 748
e 394 758
e 395 551
e 395 632
e 395 753
e 395 757
e 395 763
e 396 674
e 396 748
e 396 759
e 397 398
e 397 690
e 398 690
e 398 691
e 399 400
e 399 401
e 399 424
e 399 641
e 399 652
e 399 732
e 399 733
e 400 425
e 400 786
e 401 429
e 401 558
e 401 641
e 402 425
e 403 404
e 403 405
e 403 406
e 403 579
e 403 580
e 403 583
e 403 824
e 403 825
e 404 405
e 404 579
e 406 581
e 406 583
e 406 584
e 407 408
e 407 409
e 408 409
e 408 410
e 411 415
e 411 416
e 411 422
e 411 803
e 411 805
e 412 413
e 412 562
e 412 574
e 412 575
e 412 578
e 413 451
e 413 502
e 413 574
e 414 415
e 414 418
e 414 420
e 414 423
e 415 418
e 415 419
e 415 420
e 415 422
e 416 417
e 416 421
e 416 422
e 416 534
e 416 535
e 417 421
e 417 423
e 417 534
e 418 421
e 418 422
e 418 423
e 419 420
e 419 423
e 420 423
e 421 422
e 421 423
e 424 425
e 424 426
e 424 535
e 424 679
e 424 698
e 424 733
e 425 679
e 426 428
e 426 643
e 426 679
e 426 727
e 427 642
e 428 429
e 428 558
e 428 560
e 428 801
e 429 430
e 429 431
e 429 558
e 429 640
e 430 640
e 430 641
e 431 627
e 432 433
e 432 787
e 432 788
e 433 544
e 433 547
e 434 435
e 434 436
e 434 788
e 434 799
e 434 801
e 435 436
e 435 788
e 437 438
e 437 474
e 438 474
e 438 738
e 438 886
e 438 887
e 439 743
e 441 442
e 441 443
e 442 443
e 442 779
e 443 778
e 443 779
e 444 446
e 444 447
e 445 447
e 445 870
e 445 871
e 446 447
e 447 870
e 447 874
e 448 449
e 448 455
e 448 472
e 449 452
e 449 455
e 450 564
e 450 569
e 450 570
e 451 502
e 451 568
e 452 453
e 452 454
e 452 455
e 453 454
e 453 480
e 453 649
e 454 455
e 454 472
e 454 479
e 454 480
e 455 472
e 456 857
e 456 858
e 457 458
e 457 459
e 457 460
e 457 461
e 457 865
e 457 867
e 458 459
e 458 864
e 458 867
e 459 460
e 459 492
e 459 498
e 459 500
e 459 856
e 460 489
e 460 490
e 460 491
e 460 499
e 460 500
e 460 865
e 461 462
e 461 486
e 461 488
e 461 865
e 461 867
e 462 485
e 462 486
e 462 864
e 462 867
e 463 466
e 463 467
e 463 468
e 464 468
e 464 469
e 464 470
e 464 588
e 464 617
e 464 618
e 464 662
e 464 668
e 465 466
e 465 467
e 465 469
e 466 467
e 466 468
e 466 469
e 467 468
e 468 469
e 468 588
e 469 662
e 470 668
e 471 474
e 471 475
e 472 473
e 472 479
e 473 476
e 473 477
e 473 478
e 473 479
e 476 477
e 476 645
e 476 646
e 477 478
e 477 481
e 478 479
e 478 480
e 478 481
e 479 480
e 480 481
e 480 649
e 480 650
e 481 646
e 481 650
e 481 651
e 482 513
e 482 515
e 482 521
e 482 672
e 482 769
e 482 811
e 483 484
e 483 519
e 483 520
e 484 517
e 484 519
e 484 520
e 484 521
e 484 673
e 484 769
e 485 486
e 485 864
e 485 866
e 485 876
e 486 487
e 486 488
e 486 876
e 487 488
e 487 510
e 487 876
e 488 489
e 488 508
e 488 510
e 489 490
e 489 508
e 489 865
e 490 499
e 490 506
e 490 507
e 491 499
e 491 500
e 492 498
e 492 500
e 492 856
e 493 494
e 493 528
e 494 495
e 495 648
e 496 497
e 496 741
e 496 855
e 496 868
e 497 855
e 498 500
e 498 856
e 499 500
e 499 501
e 499 506
e 499 858
e 501 506
e 501 507
e 501 509
e 501 857
e 501 858
e 503 504
e 503 505
e 503 743
e 504 505
e 504 743
e 505 538
e 505 539
e 506 507
e 507 508
e 508 509
e 508 510
e 509 510
e 509 511
e 509 857
e 510 875
e 510 876
e 511 741
e 511 855
e 511 857
e 511 875
e 512 778
e 512 779
e 513 515
e 513 811
e 514 517
e 514 520
e 514 704
e 514 706
e 514 772
e 515 518
e 515 769
e 515 809
e 515 810
e 516 810
e 516 815
e 516 817
e 516 818
e 517 520
e 517 769
e 517 772
e 518 522
e 518 769
e 518 789
e 518 809
e 518 818
e 521 671
e 521 672
e 521 673
e 521 769
e 521 811
e 521 815
e 522 789
e 522 816
e 522 817
e 522 818
e 523 524
e 523 525
e 523 813
e 524 525
e 525 873
e 525 893
e 525 895
e 526 527
e 526 528
e 526 530
e 526 531
e 526 532
e 527 530
e 527 532
e 527 558
e 528 530
e 528 531
e 529 532
e 529 561
e 530 531
e 532 558
e 532 561
e 533 683
e 533 684
e 534 535
e 534 536
e 535 536
e 535 698
e 535 700
e 535 799
e 536 700
e 537 538
e 537 539
e 537 540
e 538 539
e 538 540
e 538 554
e 539 540
e 539 723
e 542 550
e 542 728
e 542 751
e 542 755
e 542 756
e 543 544
e 543 546
e 543 547
e 543 592
e 543 883
e 544 545
e 544 546
e 544 547
e 544 883
e 544 885
e 545 546
e 545 547
e 546 547
e 547 591
e 549 550
e 549 551
e 549 841
e 550 551
e 550 751
e 550 757
e 551 757
e 551 763
e 551 840
e 551 841
e 552 553
e 552 778
e 553 778
e 554 556
e 554 559
e 554 565
e 555 556
e 555 559
e 555 565
e 556 559
e 556 565
e 556 614
e 557 560
e 557 561
e 557 602
e 557 603
e 558 560
e 558 561
e 559 565
e 559 598
e 559 612
e 560 801
e 561 603
e 562 574
e 563 576
e 564 567
e 564 568
e 564 569
e 564 573
e 566 571
e 566 575
e 566 578
e 567 571
e 567 572
e 567 573
e 567 575
e 567 578
e 568 569
e 570 576
e 571 575
e 571 578
e 572 573
e 575 577
e 575 578
e 576 577
e 580 581
e 580 583
e 580 592
e 580 825
e 581 584
e 582 583
e 582 584
e 583 584
e 585 586
e 585 587
e 586 587
e 589 680
e 589 681
e 590 591
e 590 592
e 590 825
e 591 592
e 592 825
e 593 680
e 593 681
e 595 596
e 595 606
e 595 608
e 595 726
e 595 874
e 596 609
e 596 611
e 596 726
e 596 874
e 597 598
e 597 599
e 597 600
e 598 599
e 598 600
e 601 602
e 601 603
e 601 604
e 601 605
e 601 824
e 602 603
e 602 822
e 602 824
e 604 605
e 606 607
e 606 608
e 606 609
e 606 611
e 607 610
e 607 611
e 607 852
e 607 853
e 608 609
e 609 611
e 610 611
e 612 613
e 612 614
e 613 614
e 615 616
e 615 618
e 616 617
e 616 618
e 616 812
e 616 813
e 617 618
e 618 668
e 619 620
e 619 685
e 619 686
e 619 784
e 620 621
e 622 623
e 622 703
e 624 625
e 624 851
e 624 860
e 624 861
e 624 863
e 625 861
e 625 863
e 626 639
e 626 643
e 628 629
e 628 630
e 628 638
e 629 728
e 629 750
e 630 631
e 630 636
e 630 637
e 631 636
e 631 690
e 631 753
e 631 754
e 632 749
e 632 763
e 633 838
e 633 844
e 633 845
e 633 849
e 634 745
e 634 847
e 635 675
e 636 637
e 636 754
e 637 638
e 639 643
e 640 641
e 642 786
e 644 663
e 644 665
e 644 668
e 645 646
e 645 661
e 646 647
e 646 651
e 646 661
e 647 661
e 648 652
e 648 732
e 649 650
e 649 657
e 650 651
e 652 732
e 653 654
e 653 656
e 653 658
e 653 659
e 654 658
e 654 659
e 655 657
e 655 658
e 656 659
e 659 660
e 662 663
e 662 664
e 662 668
e 663 665
e 663 668
e 665 668
e 666 667
e 669 670
e 671 673
e 672 769
e 674 747
e 674 748
e 674 758
e 674 759
e 674 760
e 675 688
e 675 752
e 676 678
e 676 775
e 676 796
e 676 798
e 677 678
e 677 776
e 677 798
e 677 821
e 678 776
e 678 798
e 679 727
e 680 681
e 683 684
e 683 685
e 683 686
e 684 685
e 684 785
e 685 686
e 685 784
e 685 785
e 687 688
e 687 690
e 687 692
e 687 749
e 687 752
e 687 753
e 688 691
e 688 692
e 688 752
e 689 693
e 689 746
e 689 761
e 689 764
e 690 691
e 690 692
e 690 695
e 690 753
e 691 692
e 691 695
e 692 695
e 693 694
e 693 746
e 693 761
e 694 761
e 696 699
e 696 700
e 696 701
e 696 725
e 697 701
e 697 731
e 697 736
e 697 858
e 698 700
e 698 701
e 698 733
e 699 725
e 699 731
e 700 701
e 701 725
e 701 731
e 701 733
e 702 703
e 704 705
e 704 706
e 707 722
e 707 723
e 707 724
e 708 709
e 708 723
e 709 722
e 709 723
e 710 711
e 710 719
e 710 720
e 710 735
e 710 857
e 710 858
e 711 719
e 711 735
e 712 714
e 712 716
e 712 717
e 712 721
e 713 719
e 713 721
e 714 715
e 714 716
e 715 716
e 715 717
e 715 718
e 715 719
e 716 718
e 717 719
e 717 721
e 718 719
e 718 720
e 718 855
e 719 720
e 719 721
e 720 855
e 720 857
e 722 723
e 723 724
e 725 731
e 728 750
e 728 756
e 728 765
e 728 766
e 729 730
e 729 751
e 729 753
e 729 754
e 729 757
e 730 750
e 730 751
e 730 754
e 730 755
e 732 733
e 732 734
e 732 735
e 733 734
e 733 735
e 733 736
e 734 735
e 735 736
e 736 858
e 737 738
e 737 739
e 737 740
e 737 776
e 737 821
e 738 739
e 738 740
e 738 819
e 738 821
e 739 740
e 739 776
e 741 742
e 741 855
e 741 868
e 741 882
e 742 868
e 742 880
e 742 881
e 742 882
e 744 846
e 744 849
e 745 765
e 746 764
e 746 850
e 747 760
e 748 758
e 749 753
e 750 755
e 750 756
e 751 755
e 751 757
e 753 757
e 755 756
e 759 760
e 762 765
e 762 766
e 762 848
e 764 850
e 765 766
e 766 848
e 767 770
e 767 771
e 767 772
e 768 769
e 768 770
e 768 771
e 769 770
e 769 772
e 770 771
e 770 772
e 771 772
e 773 780
e 773 781
e 773 782
e 773 783
e 774 776
e 774 777
e 775 776
e 776 777
e 778 779
e 779 884
e 780 782
e 780 783
e 781 783
e 784 785
e 787 788
e 787 793
e 788 793
e 788 805
e 790 791
e 790 807
e 790 808
e 790 837
e 791 793
e 791 804
e 791 807
e 792 803
e 792 804
e 792 806
e 793 803
e 793 804
e 793 805
e 793 806
e 794 795
e 794 869
e 794 870
e 794 872
e 795 869
e 795 872
e 795 873
e 796 797
e 796 798
e 796 831
e 797 835
e 798 831
e 799 800
e 799 801
e 799 802
e 800 801
e 800 802
e 801 802
e 803 804
e 803 805
e 803 806
e 804 806
e 807 808
e 807 837
e 808 837
e 809 810
e 809 818
e 810 811
e 811 815
e 812 813
e 812 814
e 816 817
e 816 818
e 817 818
e 819 821
e 819 834
e 819 886
e 819 888
e 820 821
e 821 831
e 821 834
e 822 824
e 822 825
e 822 826
e 822 827
e 823 825
e 823 826
e 823 827
e 823 828
e 824 825
e 825 826
e 825 827
e 825 828
e 826 827
e 827 828
e 829 830
e 831 834
e 831 835
e 832 833
e 832 835
e 832 836
e 833 834
e 833 835
e 833 836
e 838 845
e 839 840
e 840 841
e 842 846
e 842 847
e 843 844
e 844 845
e 846 847
e 847 848
e 849 850
e 851 853
e 851 854
e 851 863
e 851 892
e 852 853
e 852 854
e 852 859
e 852 860
e 852 862
e 853 860
e 854 862
e 854 863
e 855 857
e 857 858
e 859 860
e 859 861
e 859 862
e 860 861
e 861 862
e 861 863
e 862 863
e 864 867
e 866 876
e 866 877
e 866 880
e 868 879
e 868 880
e 869 870
e 869 871
e 869 873
e 870 871
e 870 872
e 870 873
e 870 874
e 871 873
e 871 894
e 873 874
e 873 893
e 873 894
e 875 876
e 875 880
e 875 881
e 875 882
e 876 880
e 877 878
e 877 880
e 878 879
e 878 880
e 880 881
e 881 882
e 883 884
e 883 885
e 884 885
e 886 887
e 886 888
e 887 888
e 887 889
e 890 891
e 893 894
e 893 895
e 894 895
c k 4
